problem_generation/data/GISP/train/er_n=61_m=1109_p=0.60_SET2_setparam=100.00_alpha=0.50_499.sol
objective value:                                 1274
x2                                                  1 	(obj:100)
x6                                                  1 	(obj:100)
x7                                                  1 	(obj:100)
x11                                                 1 	(obj:100)
x13                                                 1 	(obj:100)
x14                                                 1 	(obj:100)
x18                                                 1 	(obj:100)
x22                                                 1 	(obj:100)
x26                                                 1 	(obj:100)
x30                                                 1 	(obj:100)
x34                                                 1 	(obj:100)
x36                                                 1 	(obj:100)
x57                                                 1 	(obj:100)
y36_57                                              1 	(obj:-1)
y7_30                                               1 	(obj:-1)
y2_36                                               1 	(obj:-1)
y7_11                                               1 	(obj:-1)
y6_18                                               1 	(obj:-1)
y2_11                                               1 	(obj:-1)
y30_36                                              1 	(obj:-1)
y34_57                                              1 	(obj:-1)
y7_57                                               1 	(obj:-1)
y11_18                                              1 	(obj:-1)
y7_34                                               1 	(obj:-1)
y11_26                                              1 	(obj:-1)
y11_30                                              1 	(obj:-1)
y2_34                                               1 	(obj:-1)
y6_36                                               1 	(obj:-1)
y2_6                                                1 	(obj:-1)
y2_14                                               1 	(obj:-1)
y6_11                                               1 	(obj:-1)
y30_57                                              1 	(obj:-1)
y11_34                                              1 	(obj:-1)
y22_57                                              1 	(obj:-1)
y22_34                                              1 	(obj:-1)
y34_36                                              1 	(obj:-1)
y7_18                                               1 	(obj:-1)
y7_36                                               1 	(obj:-1)
y14_34                                              1 	(obj:-1)
